Reading model...
...model read.
creating competitive generators file...
...competitive generators recorded.
Loading data...
.. real-time data read.
Compiling instance...
...instance created.
Creating Offer Mitigation (model will solve as dispatch if TRUE)...
...storage offer mitigation file created
Converting model to MPEC...
...converted
NOTE: initial MIP solve with only storage competitive to get feasible solution
Solving...

Welcome to IBM(R) ILOG(R) CPLEX(R) Interactive Optimizer 12.9.0.0
  with Simplex, Mixed Integer & Barrier Optimizers
5725-A06 5725-A29 5724-Y48 5724-Y49 5724-Y54 5724-Y55 5655-Y21
Copyright IBM Corp. 1988, 2019.  All Rights Reserved.

Type 'help' for a list of available commands.
Type 'help' followed by a command name for more
information on commands.

CPLEX> Logfile 'cplex.log' closed.
Logfile 'C:\Users\llavin\Desktop\test826\logs\tmpvjbb9_x6.cplex.log' open.
CPLEX> New value for parallel optimization mode: -1
CPLEX> New value for mixed integer optimality gap tolerance: 0.02
CPLEX> New value for integrality tolerance: 1e-12
CPLEX> New value for deterministic time limit in ticks: 45000
CPLEX> Problem 'C:\Users\llavin\Desktop\test826\logs\tmpr_5t4xrs.pyomo.lp' read.
Read time = 0.45 sec. (28.93 ticks)
CPLEX> Problem name         : C:\Users\llavin\Desktop\test826\logs\tmpr_5t4xrs.pyomo.lp
Objective sense      : Maximize
Variables            :  107803  [Nneg: 1,  Box: 44062,  Free: 8928,
                                 Binary: 54812]
Objective nonzeros   :   18444
Linear constraints   :  246963  [Less: 82886,  Greater: 118460,  Equal: 45617]
  Nonzeros           :  621661
  RHS nonzeros       :  135938

Variables            : Min LB: -5000.000        Max UB: 1000000.       
Objective nonzeros   : Min   : 0.008333333      Max   : 208.3333       
Linear constraints   :
  Nonzeros           : Min   : 0.001000000      Max   : 1000000.       
  RHS nonzeros       : Min   : 0.001000000      Max   : 1000000.       
CPLEX> CPXPARAM_Parallel                                -1
CPXPARAM_DetTimeLimit                            45000
CPXPARAM_MIP_Tolerances_MIPGap                   0.02
CPXPARAM_MIP_Tolerances_Integrality              9.9999999999999998e-13
Tried aggregator 2 times.
MIP Presolve eliminated 176292 rows and 36999 columns.
MIP Presolve added 7036 rows and 0 columns.
MIP Presolve modified 51839 coefficients.
Aggregator did 25895 substitutions.
Reduced MIP has 51812 rows, 44054 columns, and 164585 nonzeros.
Reduced MIP has 17408 binaries, 0 generals, 0 SOSs, and 0 indicators.
Presolve time = 0.53 sec. (347.74 ticks)
Probing fixed 741 vars, tightened 11051 bounds.
Probing time = 0.39 sec. (16.52 ticks)
Tried aggregator 2 times.
MIP Presolve eliminated 1671 rows and 1487 columns.
MIP Presolve modified 6373 coefficients.
Aggregator did 96 substitutions.
Reduced MIP has 50045 rows, 42471 columns, and 159445 nonzeros.
Reduced MIP has 16667 binaries, 0 generals, 0 SOSs, and 0 indicators.
Presolve time = 0.23 sec. (259.42 ticks)
Probing fixed 1 vars, tightened 513 bounds.
Probing time = 0.56 sec. (20.17 ticks)
Clique table members: 90341.
MIP emphasis: balance optimality and feasibility.
MIP search method: dynamic search.
Parallel mode: opportunistic, using up to 32 threads.
Root relaxation solution time = 1.16 sec. (2395.29 ticks)

        Nodes                                         Cuts/
   Node  Left     Objective  IInf  Best Integer    Best Bound    ItCnt     Gap

      0     0        0.0125   644                      0.0125    11034         
*     0     0      integral     0        0.0125        0.0125    11034    0.00%
Elapsed time = 4.72 sec. (4920.80 ticks, tree = 0.01 MB, solutions = 1)

Root node processing (before b&c):
  Real time             =    4.77 sec. (4924.78 ticks)
Parallel b&c, 32 threads:
  Real time             =    0.00 sec. (0.00 ticks)
  Sync time (average)   =    0.00 sec.
  Wait time (average)   =    0.00 sec.
                          ------------
Total (root+branch&cut) =    4.77 sec. (4924.78 ticks)

Solution pool: 1 solution saved.

MIP - Integer optimal solution:  Objective =  1.2455904494e-02
Solution time =    4.80 sec.  Iterations = 11034  Nodes = 0
Deterministic time = 4925.09 ticks  (1026.70 ticks/sec)

CPLEX> Incumbent solution written to file 'C:\Users\llavin\Desktop\test826\logs\tmp5scdy84a.cplex.sol'.
CPLEX> NOTE: no warmstart specified for MIP iteration, default behavior is true
NOTE: resolving with all competitive generators using storage-only solution to warmstart
Solving...

Welcome to IBM(R) ILOG(R) CPLEX(R) Interactive Optimizer 12.9.0.0
  with Simplex, Mixed Integer & Barrier Optimizers
5725-A06 5725-A29 5724-Y48 5724-Y49 5724-Y54 5724-Y55 5655-Y21
Copyright IBM Corp. 1988, 2019.  All Rights Reserved.

Type 'help' for a list of available commands.
Type 'help' followed by a command name for more
information on commands.

CPLEX> Logfile 'cplex.log' closed.
Logfile 'C:\Users\llavin\Desktop\test826\logs\tmps3p7lnsl.cplex.log' open.
CPLEX> New value for parallel optimization mode: -1
CPLEX> New value for mixed integer optimality gap tolerance: 0.02
CPLEX> New value for integrality tolerance: 1e-12
CPLEX> New value for deterministic time limit in ticks: 45000
CPLEX> Problem 'C:\Users\llavin\Desktop\test826\logs\tmp8pjuu4wz.pyomo.lp' read.
Read time = 0.50 sec. (28.97 ticks)
CPLEX> MIP start file 'C:\Users\llavin\Desktop\test826\logs\tmpthpe8110.cplex.mst' read.
CPLEX> Problem name         : C:\Users\llavin\Desktop\test826\logs\tmp8pjuu4wz.pyomo.lp
Objective sense      : Maximize
Variables            :  109243  [Nneg: 1,  Box: 45502,  Free: 8928,
                                 Binary: 54812]
Objective nonzeros   :   19837
Linear constraints   :  246963  [Less: 82886,  Greater: 118460,  Equal: 45617]
  Nonzeros           :  621661
  RHS nonzeros       :  135938

Variables            : Min LB: -5000.000        Max UB: 1000000.       
Objective nonzeros   : Min   : 0.008333333      Max   : 208.3333       
Linear constraints   :
  Nonzeros           : Min   : 0.001000000      Max   : 1000000.       
  RHS nonzeros       : Min   : 0.001000000      Max   : 1000000.       
CPLEX> CPXPARAM_Parallel                                -1
CPXPARAM_DetTimeLimit                            45000
CPXPARAM_MIP_Tolerances_MIPGap                   0.02
CPXPARAM_MIP_Tolerances_Integrality              9.9999999999999998e-13
Warning:  No solution found from 1 MIP starts.
Retaining values of one MIP start for possible repair.
Tried aggregator 2 times.
MIP Presolve eliminated 176292 rows and 38439 columns.
MIP Presolve added 7036 rows and 0 columns.
MIP Presolve modified 51839 coefficients.
Aggregator did 25895 substitutions.
Reduced MIP has 51812 rows, 44054 columns, and 164585 nonzeros.
Reduced MIP has 17408 binaries, 0 generals, 0 SOSs, and 0 indicators.
Presolve time = 0.52 sec. (348.41 ticks)
Probing fixed 741 vars, tightened 11051 bounds.
Probing time = 0.44 sec. (16.52 ticks)
Tried aggregator 2 times.
MIP Presolve eliminated 1671 rows and 1487 columns.
MIP Presolve modified 6373 coefficients.
Aggregator did 96 substitutions.
Reduced MIP has 50045 rows, 42471 columns, and 159445 nonzeros.
Reduced MIP has 16667 binaries, 0 generals, 0 SOSs, and 0 indicators.
Presolve time = 0.25 sec. (259.44 ticks)
Probing fixed 1 vars, tightened 513 bounds.
Probing time = 0.59 sec. (20.17 ticks)
Clique table members: 90341.
MIP emphasis: balance optimality and feasibility.
MIP search method: dynamic search.
Parallel mode: opportunistic, using up to 32 threads.
Root relaxation solution time = 1.63 sec. (2755.20 ticks)

        Nodes                                         Cuts/
   Node  Left     Objective  IInf  Best Integer    Best Bound    ItCnt     Gap

      0     0    25004.8796  1192                  25004.8796    12976         
      0     0    24473.5831   679                   Cuts: 541    13742         
      0     0    24137.7675   675                   Cuts: 299    14211         
      0     0    24023.2287   668                   Cuts: 213    14474         
      0     0    23993.4022   658                    Cuts: 49    14546         
      0     0    23987.1415   640                    Cuts: 20    14577         
      0     0    23984.6912   640                     Cuts: 9    14595         
      0     0    23984.6912   640                     Cuts: 3    14598         
      0     0    23984.6912   641                     Cuts: 3    14602         
Repair heuristic found nothing.
      0     2    23984.6912   641                    Cuts: 12    14602         
Elapsed time = 18.27 sec. (12052.02 ticks, tree = 0.02 MB, solutions = 0)
    216    54    23619.4162   591                  23717.6942    15864         
    550   203    23173.6448   530                  23717.6942    18558         
    880   147    23316.1374   505                  23717.6942    17718         
   1188   761    22625.5553   433                  23717.6942    29592         
   1431   415    infeasible                        23717.6942    22950         
   1657  1202    infeasible                        23717.6942    38264         
   1908  1145    22886.8701   439                  23717.6942    36834         
   2208  1448    22795.0506   457                  23717.6942    45692         
   2502  1469    22456.1012   428                  23717.6942    44639         
   3573  2042    22058.3072   401                  23717.6942    65497         
Elapsed time = 39.24 sec. (15160.57 ticks, tree = 27.86 MB, solutions = 0)
   4504  3433    22682.2613   453                  23717.6942    82445         
   5279  3983    10272.9564   351                  23717.6942    90055         
   6082  4634     1265.0471   282                  23717.6942   148342         
   6960  4848     3742.1611   337                  23717.6942   158173         
   7825  5775     2678.1891   218                  23717.6942   176793         
   8697  7243     -562.7989   288                  23717.6942   198594         
   9570  7473       33.6922   191                  23717.6942   202095         
  10432  8400    infeasible                        23700.6234   217406         
  11213  9158     -272.1521   227                  23658.1790   250997         
  12005  9059     5707.9647   278                  23655.5900   244082         
Elapsed time = 98.36 sec. (24705.25 ticks, tree = 259.18 MB, solutions = 0)
  12684  9827     6980.7029   284                  23631.2521   277861         
  13475 11373    -6411.9259   305                  23631.2521   364494         
  14361 11527     7056.1325   330                  23495.5424   375482         
  15229 11722     7964.3172   412                  23416.4002   388066         
  16125 12400     7809.7960   365                  23401.7280   445620         
  16903 13118     7160.7668   369                  23397.4030   509387         
  17677 13616     7435.4425   382                  23397.4030   547397         
  18418 14385   -19846.5063   402                  23306.3921   618990         
  19261 14755    -4937.2204   349                  23302.4765   657456         
  20182 15426     7623.8270   377                  23268.5345   711107         
Elapsed time = 155.44 sec. (34258.66 ticks, tree = 553.94 MB, solutions = 0)
  21068 16627   -23026.9512   400                  23266.0135   803668         
  21840 15997     3323.7351   383                  23266.0135   755951         
  22584 18291     8411.1559   402                  23231.4929   934781         
  23375 18305    infeasible                        23215.4099   937226         
  24191 17211     7651.5428   352                  23206.9249   854012         
  24999 18094     6868.4403   360                  23206.9249   921474         
  25915 18940     7241.8858   375                  23206.9249   984082         
  26609 19124    infeasible                        23198.6646   998429         
  27360 20120     6416.3669   341                  23198.6646  1073551         
  28093 20352     5940.8813   337                  23198.6646  1089380         
Elapsed time = 204.30 sec. (43800.39 ticks, tree = 635.99 MB, solutions = 0)
  28602 21078     7490.2681   366                  23198.6646  1150488         

Clique cuts applied:  1
Cover cuts applied:  6
Implied bound cuts applied:  10
Flow cuts applied:  753
Mixed integer rounding cuts applied:  35
Zero-half cuts applied:  3
Gomory fractional cuts applied:  8

Root node processing (before b&c):
  Real time             =   13.00 sec. (11903.46 ticks)
Parallel b&c, 32 threads:
  Real time             =  193.14 sec. (33171.70 ticks)
  Sync time (average)   =    1.27 sec.
  Wait time (average)   =    0.00 sec.
                          ------------
Total (root+branch&cut) =  206.14 sec. (45075.16 ticks)


MIP - Deterministic time limit exceeded, no integer solution.
Current MIP best bound =  2.3160434682e+04 (gap is infinite)
Solution time =  206.20 sec.  Iterations = 1329065  Nodes = 28717 (23459)
Deterministic time = 45075.47 ticks  (218.60 ticks/sec)

CPLEX> CPLEX Error  1217: No solution exists.
No file written.
CPLEX> gap is infinite, so writing 0
Exporting results... 
